{"OBJ_VAL": 699, "status": "optimal", "Name": "scp46", "time": "N/A", "X": [0, 1, 2, 3, 4, 5, 6, 8, 9, 10, 11, 12, 13, 14, 15, 17, 18, 19, 20, 23, 26, 27, 29, 30, 31, 32, 35, 37, 38, 39, 43, 48, 49, 51, 52, 54, 59, 62, 63, 67, 70, 73, 74, 76, 80, 81, 82, 83, 84, 85, 86, 87, 95, 100, 103, 109, 119, 120, 123, 125, 131, 144, 145, 146, 158, 162, 166, 171, 172, 174, 176, 181, 195, 268, 269, 281, 290], "Pi": [3.0, -0.0, -0.0, 29.0, 10.0, 4.25, 3.0, -0.0, -0.0, 1.0, 5.0, -0.0, -0.0, 3.0, -0.0, 3.0, 1.0, 1.0, 12.0, 2.0, 2.0, -0.0, -0.0, -0.0, -0.0, 2.0, -0.0, 9.0, -0.0, -0.0, -0.0, -0.0, -0.0, 1.0, -0.0, 4.0, 15.0, -0.0, -0.0, -0.0, 15.0, 5.0, 15.0, -0.0, 0.0, 4.0, -0.0, -0.0, -0.0, 1.5, -0.0, -0.0, -0.0, -0.0, 6.0, 4.0, 7.0, -0.0, 1.0, 2.0, 3.0, -0.0, -0.0, -0.0, 8.0, -0.0, 2.0, 0.75, 15.75, -0.0, -0.0, 2.0, 3.0, 8.0, 5.0, 9.0, -0.0, 3.75, 10.25, 1.0, 16.0, 1.0, -0.0, -0.0, 9.25, 3.0, 7.0, 1.0, -0.0, 15.0, -0.0, 5.0, 2.0, 8.0, -0.0, -0.0, 4.0, -0.0, -0.0, 3.25, -0.0, -0.0, 2.0, -0.0, -0.0, 25.0, -0.0, 0.0, -0.0, -0.0, -0.0, -0.0, -0.0, -0.0, -0.0, 8.0, -0.0, -0.0, 1.0, 2.0, -0.0, 1.0, -0.0, 12.0, 4.0, 2.0, -0.0, 7.0, 2.75, -0.0, 1.0, 4.0, -0.0, 8.0, -0.0, -0.0, 4.0, -0.0, -0.0, -0.0, -0.0, -0.0, -0.0, 17.0, -0.0, 5.0, -0.0, -0.0, 4.25, -0.0, 6.0, 7.0, -0.0, -0.0, 1.0, 1.0, -0.0, -0.0, 4.0, -0.0, 7.0, 7.25, -0.0, 1.0, -0.0, 10.0, 1.0, 15.25, 4.5, 4.75, -0.0, -0.0, -0.0, -0.0, -0.0, -0.0, 3.75, 1.0, -0.0, -0.0, 5.0, -0.0, 9.0, 17.0, -0.0, 5.0, -0.0, -0.0, -0.0, 4.0, -0.0, -0.0, -0.0, -0.0, -0.0, -0.0, -0.0, 6.0, 9.0, 1.0], "Dj": [0.0, 0.0, 0.0, 0.0, 0.0, 0.0, 0.0, 0.0, 0.0, 0.0, 0.0, 0.0, 0.0, 0.0, 0.0, 0.0, 0.0, 0.0, 0.0, 0.0, 0.0, 2.0, 1.0, 0.0, 3.0, 0.0, 0.0, 0.0, 0.0, 0.0, 0.0, 0.0, 0.0, 4.0, 4.0, 0.0, 1.25, 0.0, 0.0, 0.0, 0.0, 0.0, 2.75, 0.0, 6.0, 0.0, 0.0, 6.0, 0.0, 0.0, 0.0, 0.0, 0.0, 2.0, 0.0, 2.0, 0.0, 6.0, 2.0, 0.0, 0.0, 7.0, 0.0, 0.0, 0.0, 2.0, 3.0, 0.0, 8.0, 6.0, 0.0, 8.0, 0.0, 0.0, 0.0, 6.0, 0.0, 7.0, 3.0, 1.0, 0.0, 0.0, 0.0, 0.0, 0.0, 0.0, 0.0, 0.0, 0.0, 1.0, 0.0, 5.0, 10.0, 1.0, 0.0, 0.0, 0.0, 7.0, 4.0, 10.0, 0.0, 8.0, 6.25, 0.0, 0.0, 1.0, 2.0, 11.0, 6.0, 0.0, 3.0, 6.0, 5.25, 8.0, 9.0, 12.0, 12.0, 12.0, 11.0, 0.0, 0.0, 2.0, 7.75, 0.0, 11.0, 0.0, 10.0, 1.0, 4.0, 12.0, 1.25, 0.0, 10.0, 13.0, 4.0, 13.25, 14.0, 0.0, 9.0, 15.0, 9.0, 4.25, 1.0, 14.0, 0.0, 0.0, 0.0, 5.25, 7.0, 15.0, 8.0, 1.0, 4.0, 7.0, 9.0, 12.0, 10.0, 3.75, 0.0, 12.0, 16.0, 2.5, 0.0, 12.0, 12.0, 0.0, 0.0, 10.0, 0.0, 13.0, 17.0, 0.0, 0.0, 13.0, 0.0, 9.0, 0.0, 7.0, 3.0, 11.0, 11.0, 0.0, 3.0, 18.0, 3.0, 9.0, 18.0, 12.25, 19.0, 8.0, 19.0, 15.0, 13.25, 20.0, 16.5, 0.0, 16.0, 14.0, 5.0, 15.75, 6.0, 21.0, 19.0, 11.0, 9.0, 14.0, 12.0, 17.0, 18.0, 16.0, 5.0, 4.0, 19.0, 11.0, 17.0, 19.0, 14.0, 14.0, 0.0, 15.0, 7.25, 0.75, 18.0, 17.75, 20.0, 19.0, 23.0, 23.0, 3.0, 19.0, 5.0, 17.0, 24.0, 17.5, 25.0, 25.0, 0.0, 25.0, 19.0, 24.0, 21.0, 5.0, 20.0, 22.0, 18.0, 26.0, 14.0, 26.0, 26.0, 23.25, 24.0, 26.0, 14.0, 27.0, 24.0, 12.0, 27.0, 23.0, 25.5, 6.0, 0.0, 22.0, 19.75, 17.75, 18.75, 23.0, 28.0, 25.25, 0.0, 0.0, 26.0, 6.5, 9.0, 2.0, 4.75, 24.0, 21.0, 19.0, 12.0, 29.0, 2.75, 0.0, 25.0, 26.0, 24.0, 19.75, 27.0, 25.0, 20.0, 12.0, 0.0, 24.0, 30.0, 20.0, 29.0, 8.75, 26.0, 31.0, 27.0, 13.0, 12.0, 13.0, 28.25, 27.0, 32.0, 7.0, 17.0, 1.0, 14.0, 21.0, 19.0, 33.0, 20.0, 10.0, 18.0, 9.5, 15.25, 23.0, 11.0, 0.0, 1.75, 13.0, 4.25, 29.25, 18.75, 29.0, 32.0, 19.0, 28.0, 29.25, 17.0, 25.0, 1.0, 18.0, 25.75, 28.0, 17.75, 18.0, 17.25, 30.5, 31.0, 15.75, 6.0, 7.0, 14.25, 34.5, 15.0, 6.5, 29.0, 12.75, 17.0, 33.0, 29.0, 26.0, 6.75, 37.0, 37.0, 33.5, 2.0, 31.0, 29.0, 21.0, 29.0, 11.0, 25.5, 26.0, 32.0, 31.0, 22.0, 6.0, 13.75, 26.0, 39.0, 39.0, 37.0, 23.0, 38.0, 40.0, 36.0, 37.0, 36.0, 11.0, 10.0, 24.0, 30.75, 36.75, 18.0, 35.25, 42.0, 36.25, 24.0, 41.0, 41.0, 37.5, 26.0, 30.0, 42.0, 39.0, 36.0, 36.25, 32.25, 22.0, 28.0, 40.25, 42.0, 36.0, 42.0, 36.0, 42.0, 44.0, 44.0, 27.0, 44.0, 29.0, 31.75, 31.0, 36.0, 0.0, 42.0, 13.0, 41.0, 45.0, 35.0, 15.0, 45.0, 45.0, 45.0, 22.75, 36.0, 29.0, 15.0, 30.0, 32.75, 27.0, 29.0, 24.75, 36.0, 46.0, 24.75, 17.75, 42.25, 26.0, 42.0, 40.0, 23.0, 41.0, 39.0, 32.0, 42.75, 40.0, 47.0, 43.0, 45.0, 46.0, 31.0, 46.0, 39.0, 33.0, 39.75, 25.0, 39.0, 48.0, 43.0, 48.0, 36.0, 34.0, 40.0, 44.0, 21.75, 42.0, 48.0, 28.0, 42.0, 49.0, 49.0, 49.0, 26.0, 49.25, 33.0, 33.75, 36.0, 31.5, 42.0, 43.0, 40.0, 47.0, 44.0, 50.0, 45.0, 21.0, 35.0, 39.0, 23.0, 51.0, 41.0, 36.0, 44.0, 41.5, 50.0, 41.0, 32.5, 26.0, 45.0, 45.5, 52.0, 39.0, 8.0, 52.25, 33.25, 19.25, 53.0, 45.25, 49.0, 41.75, 26.0, 48.5, 41.0, 54.0, 40.25, 54.0, 53.0, 39.0, 43.25, 50.0, 41.0, 37.75, 50.0, 51.0, 51.25, 50.0, 54.0, 41.25, 54.0, 46.0, 52.0, 39.0, 53.0, 52.0, 49.0, 16.75, 52.0, 51.0, 57.0, 52.0, 57.0, 53.0, 50.0, 27.0, 45.0, 57.0, 45.0, 46.75, 50.0, 50.0, 56.0, 50.25, 7.0, 51.25, 57.0, 51.0, 57.0, 17.0, 41.75, 33.25, 56.25, 59.0, 35.0, 59.0, 59.0, 44.0, 55.0, 53.0, 51.75, 41.25, 50.0, 36.0, 58.5, 51.0, 53.0, 58.0, 59.0, 58.0, 52.0, 60.0, 59.25, 50.0, 60.0, 52.0, 59.0, 44.75, 57.0, 37.0, 60.0, 50.0, 46.0, 53.0, 57.0, 59.0, 50.75, 61.0, 61.0, 38.75, 47.75, 41.0, 62.0, 56.5, 61.0, 56.0, 45.0, 61.0, 51.75, 60.0, 42.0, 45.25, 53.0, 59.0, 54.0, 57.75, 61.0, 63.0, 59.0, 41.5, 26.0, 61.0, 31.25, 50.0, 56.25, 59.25, 34.0, 59.75, 57.0, 52.25, 57.0, 31.0, 43.5, 58.0, 55.25, 52.0, 55.0, 60.0, 40.0, 65.0, 58.0, 65.0, 65.0, 65.0, 53.0, 48.0, 57.0, 57.0, 54.0, 54.0, 41.0, 63.0, 58.0, 56.5, 62.25, 65.0, 61.0, 51.5, 42.0, 57.0, 22.0, 61.25, 66.0, 62.25, 67.0, 60.5, 64.0, 65.5, 47.0, 49.0, 62.0, 68.0, 64.25, 63.0, 55.0, 64.0, 68.0, 66.0, 49.0, 48.75, 33.75, 60.25, 48.25, 59.75, 61.75, 54.0, 64.75, 60.0, 69.0, 67.0, 61.25, 52.25, 62.0, 36.0, 69.25, 70.0, 69.0, 58.0, 57.0, 54.0, 55.75, 66.0, 62.0, 65.75, 71.0, 37.0, 51.0, 46.25, 59.0, 51.0, 60.0, 66.0, 61.75, 65.0, 62.0, 65.0, 34.25, 64.0, 72.0, 66.25, 70.25, 72.0, 64.0, 70.0, 69.0, 71.0, 57.75, 62.75, 71.0, 58.0, 59.75, 49.0, 27.0, 74.0, 72.0, 66.0, 47.75, 69.0, 73.0, 70.25, 66.0, 76.0, 74.5, 66.0, 51.0, 59.0, 75.0, 51.0, 53.0, 73.0, 51.0, 61.75, 77.0, 74.0, 77.0, 77.0, 75.0, 66.75, 68.0, 71.25, 42.0, 78.0, 78.0, 61.0, 73.5, 69.5, 56.0, 72.0, 62.0, 56.75, 65.0, 77.0, 61.0, 73.0, 78.0, 28.25, 67.0, 45.25, 75.25, 70.25, 55.0, 61.0, 67.75, 65.0, 75.0, 75.0, 80.0, 61.0, 69.0, 72.0, 76.0, 73.0, 61.75, 76.0, 77.0, 71.75, 53.75, 58.25, 71.0, 80.0, 76.75, 79.0, 80.0, 37.0, 82.0, 71.0, 78.0, 73.25, 64.75, 73.5, 42.0, 74.0, 81.0, 82.0, 82.0, 43.75, 69.0, 81.25, 76.0, 69.25, 68.75, 83.0, 79.0, 72.0, 58.0, 77.5, 77.0, 83.0, 44.0, 71.0, 76.0, 69.75, 79.0, 71.25, 81.0, 72.5, 69.0, 79.0, 76.0, 73.75, 77.0, 65.0, 75.75, 62.0, 81.0, 80.25, 49.0, 86.0, 71.0, 75.0, 83.0, 76.25, 80.5, 86.0, 85.0, 81.25, 86.0, 64.75, 81.0, 85.0, 53.0, 83.0, 72.0, 81.75, 74.5, 82.0, 80.0, 75.75, 84.0, 83.5, 61.5, 68.75, 81.0, 74.0, 84.0, 80.0, 75.75, 88.0, 88.0, 88.0, 79.0, 80.0, 68.0, 76.75, 79.0, 81.0, 83.0, 74.0, 89.0, 85.0, 66.0, 76.25, 77.25, 76.25, 79.25, 64.0, 90.0, 71.0, 85.0, 86.25, 90.0, 44.0, 90.25, 80.5, 80.75, 69.0, 89.0, 77.0, 77.0, 82.0, 66.0, 73.0, 60.75, 84.0, 82.0, 83.0, 85.0, 69.25, 88.0, 85.5, 54.0, 88.0, 88.0, 85.75, 93.0, 83.0, 75.0, 88.0, 76.0, 83.0, 70.75, 73.0, 74.0, 89.0, 87.25, 90.0, 94.0, 74.0, 89.75, 90.0, 95.0, 90.75, 85.0, 87.0, 92.0, 55.0, 94.0, 77.75, 51.5, 87.25, 87.0, 87.0, 78.0, 84.0, 86.75, 92.0, 85.75, 77.0, 91.5, 94.0, 92.0, 74.75, 84.75, 92.0, 96.0, 85.0, 89.0, 86.5, 82.0, 78.75, 90.25, 98.0, 94.0, 98.0, 98.0, 63.0, 69.0, 88.0, 64.0, 97.0, 91.0, 99.0, 99.0, 96.0, 97.0, 87.5, 87.0, 87.0, 33.75, 90.0, 99.0, 60.25, 69.0, 100.0, 92.75, 93.0, 83.0, 91.0], "slack": [0.0, -1.75, -3.5, 0.0, 0.0, 0.0, 0.0, -0.75, -0.75, 0.0, 0.0, -1.75, -0.75, 0.0, -2.0, 0.0, 0.0, 0.0, 0.0, 0.0, 0.0, -1.0, -1.75, -1.25, -1.25, 0.0, -0.5, 0.0, -1.5, -1.0, -1.0, -2.5, -1.25, 0.0, 0.0, 0.0, 0.0, -1.25, -0.25, -2.0, 0.0, 0.0, 0.0, -0.25, 0.0, 0.0, -1.5, -2.5, -2.5, 0.0, -1.0, -0.5, -1.0, 0.0, 0.0, 0.0, 0.0, -0.25, 0.0, 0.0, 0.0, 0.0, -1.0, -3.5, 0.0, -2.0, 0.0, 0.0, 0.0, -0.25, -1.0, 0.0, 0.0, 0.0, 0.0, 0.0, -0.25, 0.0, 0.0, 0.0, 0.0, 0.0, -0.75, -0.25, 0.0, 0.0, 0.0, 0.0, -1.0, 0.0, -1.5, 0.0, 0.0, 0.0, -1.25, -1.5, 0.0, 0.0, -1.0, 0.0, -1.75, -0.5, 0.0, -0.5, -1.0, 0.0, -0.5, 0.0, 0.0, -1.5, -1.0, -0.5, -1.0, -1.0, -1.5, 0.0, 0.0, 0.0, 0.0, 0.0, 0.0, 0.0, -1.0, 0.0, 0.0, 0.0, -1.25, 0.0, 0.0, -0.75, 0.0, 0.0, -2.0, 0.0, 0.0, -0.5, 0.0, 0.0, -2.0, 0.0, -1.5, -1.0, -0.75, 0.0, -0.75, 0.0, -2.0, -0.5, 0.0, -1.5, 0.0, 0.0, 0.0, -2.25, 0.0, 0.0, 0.0, -0.75, 0.0, 0.0, 0.0, 0.0, -1.75, 0.0, -0.5, 0.0, 0.0, 0.0, 0.0, 0.0, -1.0, -0.75, 0.0, -0.5, -2.0, -1.0, 0.0, 0.0, -2.0, -1.75, 0.0, -1.0, 0.0, 0.0, 0.0, 0.0, -1.75, -1.25, 0.0, 0.0, 0.0, -1.25, 0.0, -2.0, -0.5, 0.0, -0.5, 0.0, 0.0, 0.0], "density": 0.020415, "feasible": true, "X_len": 77, "mode": "AAD", "factor": 0, "obj_val": 557.25, "x": [1.0, 1.0, 1.0, 1.0, 1.0, 1.0, 0.75, 0.0, 1.0, 0.25, 1.0, 0.5, 1.0, 1.0, 0.5, 1.0, 0.0, 0.75, 1.0, 1.0, 1.0, 0.0, 0.0, 1.0, 0.0, 0.0, 1.0, 0.75, 0.0, 1.0, 1.0, 1.0, 1.0, 0.0, 0.0, 1.0, 0.0, 0.75, 1.0, 0.75, 0.0, 0.0, 0.0, 1.0, 0.0, 0.0, 0.0, 0.0, 1.0, 0.25, 0.0, 1.0, 1.0, 0.0, 1.0, 0.0, 0.0, 0.0, 0.0, 1.0, 0.0, 0.0, 0.25, 1.0, 0.0, 0.0, 0.0, 1.0, 0.0, 0.0, 1.0, 0.0, 0.0, 0.25, 0.75, 0.0, 0.75, 0.0, 0.0, 0.0, 1.0, 0.5, 1.0, 0.5, 1.0, 1.0, 0.5, 1.0, 0.0, 0.0, 0.0, 0.0, 0.0, 0.0, 0.0, 0.25, 0.0, 0.0, 0.0, 0.0, 1.0, 0.0, 0.0, 0.25, 0.0, 0.0, 0.0, 0.0, 0.0, 1.0, 0.0, 0.0, 0.0, 0.0, 0.0, 0.0, 0.0, 0.0, 0.0, 0.5, 0.5, 0.0, 0.0, 1.0, 0.0, 0.5, 0.0, 0.0, 0.0, 0.0, 0.0, 0.75, 0.0, 0.0, 0.0, 0.0, 0.0, 0.0, 0.0, 0.0, 0.0, 0.0, 0.0, 0.0, 1.0, 1.0, 0.75, 0.0, 0.0, 0.0, 0.0, 0.0, 0.0, 0.0, 0.0, 0.0, 0.0, 0.0, 1.0, 0.0, 0.0, 0.0, 1.0, 0.0, 0.0, 0.0, 1.0, 0.0, 0.0, 0.0, 0.0, 0.25, 1.0, 0.0, 0.75, 0.0, 1.0, 0.0, 0.0, 0.0, 0.0, 1.0, 0.0, 0.0, 0.0, 0.0, 0.0, 0.0, 0.0, 0.0, 0.0, 0.0, 0.0, 0.0, 0.0, 0.25, 0.0, 0.0, 0.0, 0.0, 0.0, 0.0, 0.0, 0.0, 0.0, 0.0, 0.0, 0.0, 0.0, 0.0, 0.0, 0.0, 0.0, 0.0, 0.0, 0.0, 0.0, 0.0, 0.0, 0.0, 0.0, 0.0, 0.0, 0.0, 0.0, 0.0, 0.0, 0.0, 0.0, 0.0, 0.0, 0.0, 0.0, 0.0, 0.0, 0.0, 0.0, 0.0, 0.0, 0.0, 0.0, 0.0, 0.0, 0.0, 0.0, 0.0, 0.0, 0.0, 0.0, 0.0, 0.0, 0.0, 0.0, 0.0, 0.0, 0.0, 0.0, 0.0, 0.0, 0.0, 0.0, 0.0, 0.0, 0.0, 0.0, 0.0, 0.0, 0.0, 1.0, 0.25, 0.0, 0.0, 0.0, 0.0, 0.0, 0.0, 0.0, 0.0, 0.0, 0.0, 0.0, 1.0, 0.0, 0.0, 0.0, 0.0, 0.0, 0.0, 0.0, 0.0, 1.0, 0.0, 0.0, 0.0, 0.0, 0.0, 0.0, 0.0, 0.0, 0.0, 0.0, 0.0, 0.0, 0.0, 0.0, 0.0, 0.0, 0.0, 0.0, 0.0, 0.0, 0.0, 0.0, 0.0, 0.0, 0.0, 0.0, 0.0, 0.0, 0.0, 0.0, 0.0, 0.0, 0.0, 0.0, 0.0, 0.0, 0.0, 0.0, 0.0, 0.0, 0.0, 0.0, 0.0, 0.0, 0.0, 0.0, 0.0, 0.0, 0.0, 0.0, 0.0, 0.0, 0.0, 0.0, 0.0, 0.0, 0.0, 0.0, 0.0, 0.0, 0.0, 0.0, 0.0, 0.0, 0.0, 0.0, 0.0, 0.0, 0.0, 0.0, 0.0, 0.0, 0.0, 0.0, 0.0, 0.0, 0.0, 0.0, 0.0, 0.0, 0.0, 0.0, 0.0, 0.0, 0.0, 0.0, 0.0, 0.0, 0.0, 0.0, 0.0, 0.0, 0.0, 0.0, 0.0, 0.0, 0.0, 0.0, 0.0, 0.0, 0.0, 0.0, 0.0, 0.0, 0.0, 0.0, 0.0, 0.0, 0.0, 0.0, 0.0, 0.0, 0.0, 0.0, 0.0, 0.0, 0.0, 0.0, 0.0, 0.0, 0.0, 0.0, 0.0, 0.0, 0.0, 0.0, 0.0, 0.0, 0.0, 0.0, 0.0, 0.0, 0.0, 0.0, 0.0, 0.0, 0.0, 0.0, 0.0, 0.0, 0.0, 0.0, 0.0, 0.0, 0.0, 0.0, 0.0, 0.0, 0.0, 0.0, 0.0, 0.0, 0.0, 0.0, 0.0, 0.0, 0.0, 0.0, 0.0, 0.0, 0.0, 0.0, 0.0, 0.0, 0.0, 0.0, 0.0, 0.0, 0.0, 0.0, 0.0, 0.0, 0.0, 0.0, 0.0, 0.0, 0.0, 0.0, 0.0, 0.0, 0.0, 0.0, 0.0, 0.0, 0.0, 0.0, 0.0, 0.0, 0.0, 0.0, 0.0, 0.0, 0.0, 0.0, 0.0, 0.0, 0.0, 0.0, 0.0, 0.0, 0.0, 0.0, 0.0, 0.0, 0.0, 0.0, 0.0, 0.0, 0.0, 0.0, 0.0, 0.0, 0.0, 0.0, 0.0, 0.0, 0.0, 0.0, 0.0, 0.0, 0.0, 0.0, 0.0, 0.0, 0.0, 0.0, 0.0, 0.0, 0.0, 0.0, 0.0, 0.0, 0.0, 0.0, 0.0, 0.0, 0.0, 0.0, 0.0, 0.0, 0.0, 0.0, 0.0, 0.0, 0.0, 0.0, 0.0, 0.0, 0.0, 0.0, 0.0, 0.0, 0.0, 0.0, 0.0, 0.0, 0.0, 0.0, 0.0, 0.0, 0.0, 0.0, 0.0, 0.0, 0.0, 0.0, 0.0, 0.0, 0.0, 0.0, 0.0, 0.0, 0.0, 0.0, 0.0, 0.0, 0.0, 0.0, 0.0, 0.0, 0.0, 0.0, 0.0, 0.0, 0.0, 0.0, 0.0, 0.0, 0.0, 0.0, 0.0, 0.0, 0.0, 0.0, 0.0, 0.0, 0.0, 0.0, 0.0, 0.0, 0.0, 0.0, 0.0, 0.0, 0.0, 0.0, 0.0, 0.0, 0.0, 0.0, 0.0, 0.0, 0.0, 0.0, 0.0, 0.0, 0.0, 0.0, 0.0, 0.0, 0.0, 0.0, 0.0, 0.0, 0.0, 0.0, 0.0, 0.0, 0.0, 0.0, 0.0, 0.0, 0.0, 0.0, 0.0, 0.0, 0.0, 0.0, 0.0, 0.0, 0.0, 0.0, 0.0, 0.0, 0.0, 0.0, 0.0, 0.0, 0.0, 0.0, 0.0, 0.0, 0.0, 0.0, 0.0, 0.0, 0.0, 0.0, 0.0, 0.0, 0.0, 0.0, 0.0, 0.0, 0.0, 0.0, 0.0, 0.0, 0.0, 0.0, 0.0, 0.0, 0.0, 0.0, 0.0, 0.0, 0.0, 0.0, 0.0, 0.0, 0.0, 0.0, 0.0, 0.0, 0.0, 0.0, 0.0, 0.0, 0.0, 0.0, 0.0, 0.0, 0.0, 0.0, 0.0, 0.0, 0.0, 0.0, 0.0, 0.0, 0.0, 0.0, 0.0, 0.0, 0.0, 0.0, 0.0, 0.0, 0.0, 0.0, 0.0, 0.0, 0.0, 0.0, 0.0, 0.0, 0.0, 0.0, 0.0, 0.0, 0.0, 0.0, 0.0, 0.0, 0.0, 0.0, 0.0, 0.0, 0.0, 0.0, 0.0, 0.0, 0.0, 0.0, 0.0, 0.0, 0.0, 0.0, 0.0, 0.0, 0.0, 0.0, 0.0, 0.0, 0.0, 0.0, 0.0, 0.0, 0.0, 0.0, 0.0, 0.0, 0.0, 0.0, 0.0, 0.0, 0.0, 0.0, 0.0, 0.0, 0.0, 0.0, 0.0, 0.0, 0.0, 0.0, 0.0, 0.0, 0.0, 0.0, 0.0, 0.0, 0.0, 0.0, 0.0, 0.0, 0.0, 0.0, 0.0, 0.0, 0.0, 0.0, 0.0, 0.0, 0.0, 0.0, 0.0, 0.0, 0.0, 0.0, 0.0, 0.0, 0.0, 0.0, 0.0, 0.0, 0.0, 0.0, 0.0, 0.0, 0.0, 0.0, 0.0, 0.0, 0.0, 0.0, 0.0, 0.0, 0.0, 0.0, 0.0, 0.0, 0.0, 0.0, 0.0, 0.0, 0.0, 0.0, 0.0, 0.0, 0.0, 0.0, 0.0, 0.0, 0.0, 0.0, 0.0, 0.0, 0.0, 0.0, 0.0, 0.0, 0.0, 0.0, 0.0, 0.0, 0.0, 0.0, 0.0, 0.0, 0.0, 0.0, 0.0, 0.0, 0.0, 0.0, 0.0, 0.0, 0.0, 0.0, 0.0, 0.0, 0.0, 0.0, 0.0, 0.0, 0.0, 0.0, 0.0, 0.0, 0.0, 0.0, 0.0, 0.0, 0.0, 0.0, 0.0, 0.0, 0.0, 0.0, 0.0, 0.0, 0.0, 0.0, 0.0, 0.0, 0.0, 0.0, 0.0, 0.0, 0.0, 0.0, 0.0, 0.0, 0.0, 0.0, 0.0, 0.0, 0.0, 0.0, 0.0, 0.0, 0.0, 0.0, 0.0, 0.0, 0.0, 0.0, 0.0, 0.0, 0.0, 0.0, 0.0, 0.0, 0.0, 0.0, 0.0, 0.0, 0.0, 0.0, 0.0, 0.0, 0.0, 0.0, 0.0, 0.0, 0.0, 0.0, 0.0, 0.0, 0.0, 0.0, 0.0, 0.0, 0.0, 0.0, 0.0, 0.0, 0.0, 0.0, 0.0, 0.0, 0.0, 0.0, 0.0, 0.0, 0.0, 0.0, 0.0, 0.0, 0.0, 0.0, 0.0, 0.0, 0.0, 0.0, 0.0, 0.0, 0.0, 0.0, 0.0, 0.0, 0.0, 0.0, 0.0, 0.0, 0.0, 0.0, 0.0, 0.0, 0.0, 0.0, 0.0, 0.0, 0.0, 0.0, 0.0, 0.0, 0.0, 0.0, 0.0, 0.0, 0.0, 0.0, 0.0, 0.0, 0.0, 0.0, 0.0, 0.0, 0.0, 0.0, 0.0, 0.0, 0.0, 0.0, 0.0, 0.0, 0.0, 0.0, 0.0, 0.0, 0.0, 0.0, 0.0, 0.0, 0.0, 0.0, 0.0, 0.0, 0.0, 0.0, 0.0, 0.0, 0.0, 0.0, 0.0, 0.0, 0.0]}